************************************************************************
file with basedata            : cm562_.bas
initial value random generator: 140870655
************************************************************************
projects                      :  1
jobs (incl. supersource/sink ):  18
horizon                       :  135
RESOURCES
  - renewable                 :  2   R
  - nonrenewable              :  2   N
  - doubly constrained        :  0   D
************************************************************************
PROJECT INFORMATION:
pronr.  #jobs rel.date duedate tardcost  MPM-Time
    1     16      0       19       10       19
************************************************************************
PRECEDENCE RELATIONS:
jobnr.    #modes  #successors   successors
   1        1          3           2   3   4
   2        5          3           5   8  11
   3        5          3           7   9  13
   4        5          3           5   6   8
   5        5          1           9
   6        5          3           7   9  10
   7        5          2          14  17
   8        5          1          10
   9        5          3          14  16  17
  10        5          2          12  16
  11        5          2          13  16
  12        5          1          13
  13        5          2          14  17
  14        5          1          15
  15        5          1          18
  16        5          1          18
  17        5          1          18
  18        1          0        
************************************************************************
REQUESTS/DURATIONS:
jobnr. mode duration  R 1  R 2  N 1  N 2
------------------------------------------------------------------------
  1      1     0       0    0    0    0
  2      1     4       7    7    7    5
         2     5       7    7    6    5
         3     6       5    7    6    5
         4     7       4    7    6    4
         5     9       3    7    5    4
  3      1     2       9    3    9    7
         2     4       8    2    8    7
         3     6       8    2    5    6
         4     6       6    2    6    6
         5     9       5    1    3    5
  4      1     5       8   10   10    6
         2     5       9   10    9    7
         3     7       8    8    9    6
         4     8       6    7    7    4
         5     9       6    5    5    3
  5      1     1       8    9   10    6
         2     4       6    9    8    5
         3     4       7    8    9    5
         4     6       5    8    7    5
         5     9       2    7    4    4
  6      1     1       7    8    9    9
         2     2       7    6    9    7
         3     2       7    6    8    8
         4     3       7    4    8    5
         5     5       7    3    6    5
  7      1     4       3   10    9   10
         2     7       3    7    8    8
         3     7       2    8    8    6
         4     7       3    7    9    7
         5     9       2    7    8    6
  8      1     4       9    6    4   10
         2     5       7    5    4    9
         3     7       6    5    3    7
         4    10       1    4    1    6
         5    10       3    4    1    5
  9      1     3       7    4    9    7
         2     5       6    4    8    7
         3     6       4    3    7    7
         4     7       2    3    4    6
         5     7       2    2    5    6
 10      1     1       4    9    8    5
         2     4       3    9    8    3
         3     5       3    8    7    2
         4     5       2    9    8    2
         5     9       1    8    7    2
 11      1     1       3   10    9    8
         2     2       3   10    8    8
         3     4       3    9    6    7
         4     6       2    9    3    7
         5     7       2    9    2    7
 12      1     1       5    9    8    5
         2     4       5    9    6    5
         3     5       4    9    5    5
         4     6       4    8    5    4
         5     7       3    8    4    4
 13      1     4       8    9   10    3
         2     5       7    9    9    3
         3     6       7    8    6    3
         4     6       6    8    7    3
         5     7       6    8    6    3
 14      1     3      10    6   10    7
         2     4       7    5    9    6
         3     5       6    5    7    6
         4     6       5    4    6    6
         5    10       4    4    6    5
 15      1     1      10   10    8   10
         2     4       9    9    7    9
         3     6       9    7    4    6
         4     7       8    6    4    4
         5     8       7    5    3    3
 16      1     5       6    7   10    5
         2     6       4    6    9    5
         3     7       3    6    8    4
         4    10       3    5    6    4
         5    10       2    6    5    4
 17      1     2       6    4    9   10
         2     6       6    4    8    6
         3     6       5    4    8    7
         4    10       2    4    8    5
         5    10       3    4    8    4
 18      1     0       0    0    0    0
************************************************************************
RESOURCEAVAILABILITIES:
  R 1  R 2  N 1  N 2
   16   16  139  114
************************************************************************
